[VALIDATOR STDOUT]
Checking plan: /home/jfan5/Safety-gen/runs/benchmark/optic/ferry_20260205_113042/ferry/optic_results/ferry-l07-c04-s7001.plan
Plan executed successfully - checking goal
Plan valid
Final value: 15 

Successful plans:
Value: 15
 /home/jfan5/Safety-gen/runs/benchmark/optic/ferry_20260205_113042/ferry/optic_results/ferry-l07-c04-s7001.plan 15
